c 
c G(k,n,p) graph
c graph gen seed     : 846
c number of vertices : 60
c max number of edges: 900
c number of classes  : 2
c edge density       : 0.300000
c edge probability   : 0.600000
c data structure     : dense
c
c           Graph Stats
c number of vertices  : 60
c nonisolated vertices: 60
c number of edges     : 547
c edge density        : 0.309040
c max degree          : 26
c avg degree          : 18.23
c min degree          : 13
p col 60 547
e 1 3
e 1 8
e 1 9
e 1 21
e 1 23
e 1 25
e 1 27
e 1 29
e 1 30
e 1 31
e 1 32
e 1 37
e 1 39
e 1 40
e 1 42
e 1 52
e 1 53
e 1 54
e 1 55
e 1 57
e 2 4
e 2 11
e 2 12
e 2 15
e 2 16
e 2 17
e 2 18
e 2 19
e 2 20
e 2 24
e 2 36
e 2 41
e 2 43
e 2 44
e 2 45
e 2 46
e 2 59
e 2 60
e 3 10
e 3 12
e 3 17
e 3 18
e 3 28
e 3 34
e 3 36
e 3 45
e 3 46
e 3 48
e 3 49
e 3 51
e 3 56
e 3 60
e 4 5
e 4 7
e 4 9
e 4 13
e 4 14
e 4 23
e 4 25
e 4 26
e 4 31
e 4 32
e 4 37
e 4 40
e 4 47
e 4 53
e 4 54
e 4 55
e 5 10
e 5 12
e 5 15
e 5 16
e 5 17
e 5 18
e 5 19
e 5 20
e 5 22
e 5 24
e 5 28
e 5 36
e 5 38
e 5 41
e 5 44
e 5 46
e 5 49
e 5 56
e 5 58
e 5 59
e 6 10
e 6 11
e 6 12
e 6 15
e 6 16
e 6 17
e 6 34
e 6 36
e 6 43
e 6 44
e 6 46
e 6 49
e 6 51
e 6 56
e 6 59
e 7 10
e 7 11
e 7 12
e 7 17
e 7 22
e 7 28
e 7 34
e 7 41
e 7 45
e 7 46
e 7 48
e 7 49
e 7 51
e 7 56
e 8 10
e 8 11
e 8 12
e 8 15
e 8 20
e 8 22
e 8 24
e 8 28
e 8 36
e 8 38
e 8 41
e 8 43
e 8 44
e 8 46
e 8 48
e 8 49
e 8 51
e 8 56
e 8 59
e 9 17
e 9 18
e 9 28
e 9 34
e 9 36
e 9 38
e 9 41
e 9 43
e 9 48
e 9 49
e 9 51
e 9 56
e 9 60
e 10 21
e 10 25
e 10 27
e 10 29
e 10 30
e 10 32
e 10 35
e 10 37
e 10 40
e 10 42
e 10 55
e 11 13
e 11 21
e 11 23
e 11 25
e 11 27
e 11 29
e 11 31
e 11 32
e 11 33
e 11 35
e 11 37
e 11 40
e 11 47
e 11 50
e 11 52
e 11 54
e 11 57
e 12 13
e 12 26
e 12 29
e 12 30
e 12 31
e 12 32
e 12 37
e 12 42
e 12 50
e 12 52
e 12 54
e 12 55
e 12 57
e 13 15
e 13 17
e 13 18
e 13 20
e 13 24
e 13 28
e 13 34
e 13 36
e 13 41
e 13 44
e 13 46
e 13 48
e 13 49
e 13 51
e 13 59
e 13 60
e 14 17
e 14 18
e 14 19
e 14 20
e 14 24
e 14 34
e 14 41
e 14 44
e 14 46
e 14 48
e 14 49
e 14 51
e 14 56
e 14 58
e 14 59
e 14 60
e 15 25
e 15 26
e 15 27
e 15 30
e 15 31
e 15 32
e 15 35
e 15 37
e 15 39
e 15 40
e 15 42
e 15 50
e 15 54
e 15 55
e 16 21
e 16 26
e 16 29
e 16 30
e 16 32
e 16 35
e 16 37
e 16 40
e 16 50
e 16 55
e 17 21
e 17 23
e 17 27
e 17 29
e 17 30
e 17 31
e 17 35
e 17 37
e 17 40
e 17 42
e 17 47
e 17 54
e 18 21
e 18 23
e 18 25
e 18 26
e 18 27
e 18 30
e 18 32
e 18 35
e 18 37
e 18 40
e 18 47
e 18 50
e 18 52
e 18 53
e 18 54
e 19 21
e 19 23
e 19 25
e 19 26
e 19 27
e 19 29
e 19 30
e 19 40
e 19 42
e 19 50
e 19 54
e 19 55
e 19 57
e 20 21
e 20 26
e 20 31
e 20 32
e 20 33
e 20 35
e 20 39
e 20 42
e 20 47
e 20 53
e 20 54
e 20 57
e 21 24
e 21 28
e 21 34
e 21 36
e 21 41
e 21 45
e 21 46
e 21 48
e 21 49
e 21 56
e 21 58
e 21 59
e 21 60
e 22 23
e 22 25
e 22 27
e 22 30
e 22 31
e 22 32
e 22 35
e 22 39
e 22 40
e 22 42
e 22 47
e 22 50
e 22 52
e 22 53
e 22 55
e 22 57
e 23 34
e 23 36
e 23 38
e 23 41
e 23 43
e 23 44
e 23 45
e 23 49
e 23 51
e 23 56
e 23 58
e 23 59
e 24 25
e 24 26
e 24 27
e 24 31
e 24 33
e 24 39
e 24 40
e 24 42
e 24 47
e 24 50
e 24 53
e 24 54
e 24 57
e 25 28
e 25 34
e 25 36
e 25 38
e 25 41
e 25 43
e 25 44
e 25 45
e 25 46
e 25 48
e 25 51
e 25 56
e 25 59
e 26 28
e 26 38
e 26 41
e 26 43
e 26 48
e 26 49
e 26 51
e 26 56
e 26 58
e 26 60
e 27 28
e 27 34
e 27 36
e 27 41
e 27 43
e 27 45
e 27 46
e 27 48
e 27 58
e 28 32
e 28 33
e 28 35
e 28 39
e 28 42
e 28 54
e 28 55
e 28 57
e 29 34
e 29 36
e 29 46
e 29 48
e 29 49
e 29 59
e 30 34
e 30 36
e 30 41
e 30 44
e 30 45
e 30 46
e 30 48
e 30 49
e 30 51
e 30 56
e 30 59
e 31 36
e 31 46
e 31 48
e 31 49
e 31 51
e 31 56
e 31 59
e 32 34
e 32 36
e 32 41
e 32 43
e 32 45
e 32 48
e 32 49
e 32 51
e 32 56
e 32 58
e 32 60
e 33 34
e 33 36
e 33 38
e 33 43
e 33 44
e 33 45
e 33 46
e 33 48
e 33 49
e 33 59
e 33 60
e 34 35
e 34 47
e 34 53
e 34 54
e 34 55
e 35 36
e 35 38
e 35 41
e 35 45
e 35 46
e 35 48
e 35 49
e 35 51
e 35 56
e 35 58
e 35 60
e 36 37
e 36 39
e 36 40
e 36 42
e 36 50
e 36 52
e 36 53
e 36 55
e 36 57
e 37 38
e 37 41
e 37 43
e 37 44
e 37 46
e 37 56
e 37 59
e 38 39
e 38 42
e 38 47
e 38 52
e 38 57
e 39 43
e 39 44
e 39 45
e 39 46
e 39 48
e 39 49
e 39 59
e 39 60
e 40 41
e 40 44
e 40 49
e 40 51
e 40 56
e 40 58
e 40 59
e 40 60
e 41 47
e 41 50
e 41 52
e 41 55
e 41 57
e 42 44
e 42 49
e 42 56
e 42 58
e 42 60
e 43 47
e 43 52
e 43 53
e 43 57
e 44 47
e 44 50
e 44 52
e 44 53
e 44 57
e 45 47
e 45 52
e 45 53
e 45 55
e 46 52
e 46 53
e 46 54
e 46 55
e 46 57
e 47 51
e 47 56
e 47 58
e 47 59
e 47 60
e 48 52
e 48 53
e 48 54
e 49 52
e 49 53
e 49 55
e 49 57
e 50 51
e 50 58
e 50 59
e 51 54
e 51 57
e 52 56
e 52 58
e 52 60
e 53 59
e 53 60
e 54 58
e 54 59
e 54 60
e 55 56
e 57 59
e 57 60
